; benchmark generated from python API
(set-info :status unknown)
(declare-fun x_month () Int)
(declare-fun x_year () Int)
(declare-fun x_day () Int)
(assert
 (let (($x435 (= x_month 4)))
 (let ((?x856 (ite (or $x435 (= x_month 6) (= x_month 9) (= x_month 11)) 30 31)))
 (let (($x455 (= (mod x_year 400) 0)))
 (let (($x1096 (= (mod x_year 4) 0)))
 (let ((?x483 (ite (or (and $x1096 (and (distinct (mod x_year 100) 0) true)) $x455) 29 28)))
 (let (($x1028 (= x_month 2)))
 (let (($x575 (<= x_day (ite $x1028 ?x483 ?x856))))
 (let (($x1034 (>= x_day 1)))
 (let (($x830 (<= x_month 2)))
 (let (($x815 (>= x_month 1)))
 (let (($x443 (= x_year 2100)))
 (let (($x768 (<= x_month 12)))
 (let (($x859 (<= x_year 2099)))
 (let (($x869 (>= x_year 1901)))
 (or (and (= x_year 1900) (>= x_month 3) $x768 $x1034 $x575) (and $x869 $x859 $x815 $x768 $x1034 $x575) (and $x443 $x815 $x830 $x1034 $x575)))))))))))))))))
(assert
 (let (($x862 (= x_year 2023)))
 (let (($x1054 (and $x862 (or (< x_month 4) (and (= x_month 4) (<= x_day 30))))))
 (not (or (< x_year 2023) $x1054)))))
(assert
 (let (($x862 (= x_year 2023)))
(let (($x598 (and $x862 (or (> x_month 5) (and (= x_month 5) (>= x_day 1))))))
(not (or (> x_year 2023) $x598)))))
(check-sat)
